3 
4  30 48 
5  10 26 42 57 
6  12 27 42 57 
7  12 27 42 57 
8  12 27 42 57 
9  12 27 43 58 
10  13 28 43 58 
11  13 28 43 58 
12  13 28 43 58 
13  13 28 43 58 
14  13 28 43 57 
15  12 27 42 57 
16  12 27 42 57 
17  12 27 42 57 
18  12 27 43 58 
19  13 28 43 58 
20  13 28 43 58 
21  13 28 43 58 
22  17 32 47 
23 
0 
